Minimize
2 u_0_1 + u_0_0 + 2 u_1_1 + u_1_0 + 2 u_2_1 + u_2_0 + 2 u_3_1 + u_3_0 + 2 u_4_1 + u_4_0 + 2 u_5_1 + u_5_0 + 2 u_6_1 + u_6_0 + 2 u_7_1 + u_7_0 + 2 u_8_1 + u_8_0 + 2 u_9_1 + u_9_0 + 2 u_10_1 + u_10_0 + 2 u_11_1 + u_11_0 + 2 u_12_1 + u_12_0 + 2 u_13_1 + u_13_0 + 2 u_14_1 + u_14_0 + 2 u_15_1 + u_15_0
Subject To
3 x_0_0 + 4 x_0_1 + 4 x_0_2 + 1 x_0_3 - 2 y_0_0 + 0 y_0_1 - 2 y_0_2 + 1 y_0_3 >= 0
0 x_1_0 - 2 x_1_1 - 2 x_1_2 + 3 x_1_3 + 4 y_1_0 + 1 y_1_1 + 4 y_1_2 + 1 y_1_3 >= 0
-2 x_2_0 + 1 x_2_1 + 1 x_2_2 + 3 x_2_3 + 1 y_2_0 - 1 y_2_1 + 1 y_2_2 + 2 y_2_3 >= 0
1 x_3_0 - 3 x_3_1 - 2 x_3_2 - 2 x_3_3 + 3 y_3_0 - 4 y_3_1 + 1 y_3_2 - 3 y_3_3 >= -10
-1 x_4_0 - 2 x_4_1 - 2 x_4_2 - 1 x_4_3 - 1 y_4_0 + 2 y_4_1 - 1 y_4_2 + 0 y_4_3 >= -6
2 x_5_0 + 1 x_5_1 + 1 x_5_2 - 3 x_5_3 + 1 y_5_0 + 2 y_5_1 + 1 y_5_2 + 2 y_5_3 >= 0
-2 x_6_0 - 2 x_6_1 + 1 x_6_2 - 1 x_6_3 - 2 y_6_0 - 1 y_6_1 + 1 y_6_2 + 0 y_6_3 >= -6
-1 x_7_0 + 2 x_7_1 - 3 x_7_2 + 1 x_7_3 - 1 y_7_0 - 2 y_7_1 - 3 y_7_2 - 3 y_7_3 >= -10
-1 x_8_0 + 1 x_8_1 + 1 x_8_2 - 1 x_8_3 + 0 y_8_0 + 0 y_8_1 + 0 y_8_2 - 1 y_8_3 >= -2
2 x_9_0 - 1 x_9_1 + 2 x_9_2 + 2 x_9_3 + 2 y_9_0 + 3 y_9_1 - 1 y_9_2 - 1 y_9_3 >= 0
2 x_10_0 + 3 x_10_1 - 2 x_10_2 - 4 x_10_3 - 4 y_10_0 - 4 y_10_1 - 1 y_10_2 + 1 y_10_3 >= -11
2 x_11_0 + 2 x_11_1 - 1 x_11_2 + 2 x_11_3 - 1 y_11_0 + 3 y_11_1 + 2 y_11_2 - 1 y_11_3 >= 0
-1 x_12_0 - 3 x_12_1 + 2 x_12_2 + 1 x_12_3 - 3 y_12_0 - 2 y_12_1 - 1 y_12_2 - 3 y_12_3 >= -10
-1 x_13_0 + 0 x_13_1 - 1 x_13_2 - 1 x_13_3 + 1 y_13_0 + 0 y_13_1 - 1 y_13_2 + 0 y_13_3 >= -3
0 x_14_0 - 1 x_14_1 - 1 x_14_2 + 1 x_14_3 - 1 y_14_0 + 0 y_14_1 - 1 y_14_2 + 1 y_14_3 >= -3
0 x_15_0 - 1 x_15_1 + 1 x_15_2 - 1 x_15_3 + 0 y_15_0 - 1 y_15_1 - 1 y_15_2 + 1 y_15_3 >= -3
Binary
x_0_0
x_0_1
x_0_2
x_0_3
x_1_0
x_1_1
x_1_2
x_1_3
x_2_0
x_2_1
x_2_2
x_2_3
x_3_0
x_3_1
x_3_2
x_3_3
x_4_0
x_4_1
x_4_2
x_4_3
x_5_0
x_5_1
x_5_2
x_5_3
x_6_0
x_6_1
x_6_2
x_6_3
x_7_0
x_7_1
x_7_2
x_7_3
x_8_0
x_8_1
x_8_2
x_8_3
x_9_0
x_9_1
x_9_2
x_9_3
x_10_0
x_10_1
x_10_2
x_10_3
x_11_0
x_11_1
x_11_2
x_11_3
x_12_0
x_12_1
x_12_2
x_12_3
x_13_0
x_13_1
x_13_2
x_13_3
x_14_0
x_14_1
x_14_2
x_14_3
x_15_0
x_15_1
x_15_2
x_15_3
y_0_0
y_0_1
y_0_2
y_0_3
y_1_0
y_1_1
y_1_2
y_1_3
y_2_0
y_2_1
y_2_2
y_2_3
y_3_0
y_3_1
y_3_2
y_3_3
y_4_0
y_4_1
y_4_2
y_4_3
y_5_0
y_5_1
y_5_2
y_5_3
y_6_0
y_6_1
y_6_2
y_6_3
y_7_0
y_7_1
y_7_2
y_7_3
y_8_0
y_8_1
y_8_2
y_8_3
y_9_0
y_9_1
y_9_2
y_9_3
y_10_0
y_10_1
y_10_2
y_10_3
y_11_0
y_11_1
y_11_2
y_11_3
y_12_0
y_12_1
y_12_2
y_12_3
y_13_0
y_13_1
y_13_2
y_13_3
y_14_0
y_14_1
y_14_2
y_14_3
y_15_0
y_15_1
y_15_2
y_15_3
u_0_0
u_0_1
u_1_0
u_1_1
u_2_0
u_2_1
u_3_0
u_3_1
u_4_0
u_4_1
u_5_0
u_5_1
u_6_0
u_6_1
u_7_0
u_7_1
u_8_0
u_8_1
u_9_0
u_9_1
u_10_0
u_10_1
u_11_0
u_11_1
u_12_0
u_12_1
u_13_0
u_13_1
u_14_0
u_14_1
u_15_0
u_15_1
END